letting initialStacks = [9, 16, 18, 2, 48, 27, 41, 24, 25, 3, 50, 42, 23, 37, 31, 17, 12, 38, 36, 30, 22, 32, 33, 13, 26, 5, 35, 14, 47, 7, 15, 4, 6, 20, 8, 44, 45, 34, 10, 39, 28, 51, 49, 46, 1, 21, 40, 19, 43, 29, 11]
